c 
p cnf 10 40
-4 -6 -10 0
10 4 0
-5 0
5 -1 -6 3 -2 0
4 7 0
2 0
7 6 0
-7 -6 -1 3 -4 0
-7 3 2 -1 0
4 -9 2 0
-2 9 0
2 -3 -10 9 0
-8 -7 10 4 2 0
1 -4 0
9 -6 -4 2 0
-3 0
-10 -8 5 0
5 0
10 6 -3 7 0
-5 0
9 -8 -7 -10 -2 0
7 4 -6 -3 -5 0
-9 -7 -8 3 0
8 3 0
6 -8 -3 -2 0
4 7 1 -9 0
9 -4 0
4 9 10 8 3 0
7 0
-9 2 7 0
-9 -2 6 7 5 0
3 0
-10 -2 8 0
4 -6 0
-8 -5 0
8 -6 -4 9 0
-7 10 -8 -5 -3 0
-1 0
-5 8 -4 7 -10 0
6 2 -5 -7 4 0
